NAME : eil101.tsp
COMMENT : Optimal tour for eil101.tsp
TYPE : TOUR
DIMENSION : 101
Total Length: 699.4651930174991
TOUR_SECTION
1
69
31
70
30
20
32
90
63
11
64
49
36
46
47
48
19
62
10
88
7
82
8
45
83
60
18
89
6
94
13
2
87
42
14
44
16
91
100
37
98
85
93
59
92
97
95
96
99
5
84
17
61
86
38
43
15
57
41
22
74
73
21
72
75
56
23
67
39
25
55
4
54
12
80
68
24
29
78
34
9
35
71
65
66
51
81
33
79
3
77
76
50
28
26
40
58
53
101
27
52
-1
EOF
